--- Job transport02.gms Start 11/17/20 14:31:35 32.2.0 rc62c018 WEX-WEI x86 64bit/MS Windows
--- Applying:
    M:\PROGRAMY\gams32\gmsprmNT.txt
--- GAMS Parameters defined
    Input M:\PROGRAMY\gams30.1\apifiles\Python\Diplomka\SRC\gams\transport\transport02.gms
    PageSize 0
    ScrDir M:\PROGRAMY\gams30.1\apifiles\Python\Diplomka\SRC\gams\transport\225a\
    SysDir M:\PROGRAMY\gams32\
    LogOption 3
    ErrMsg 1
    ErrorLog 99
    IDE 1
    LstTitleLeftAligned 1
GAMS 32.2.0   Copyright (C) 1987-2020 GAMS Development. All rights reserved
Licensee: GAMS Demo license for Marek Kovalcik           G201017|0002CO-GEN
          Brno university of technology, Czech Republic            DL020636
          M:\PROGRAMY\gams32\gamslice.txt
          196248@usi.vutbr.cz, Marek Kovalcik                              
          Demo license for demonstration and instructional purposes only
--- Starting compilation
--- transport02.gms(53) 3 Mb
--- Starting execution: elapsed 0:00:00.004
--- transport02.gms(30) 4 Mb
--- Generating LP model transport
--- transport02.gms(51) 4 Mb
---   6 rows  7 columns  19 non-zeroes
--- Executing CPLEX (Solvelink=2): elapsed 0:00:00.036

IBM ILOG CPLEX   32.2.0 rc62c018 Released Aug 26, 2020 WEI x86 64bit/MS Window
*** This solver runs with a demo license. No commercial use.
Cplex 12.10.0.0

Reading data...
Starting Cplex...
Space for names approximately 0.00 Mb
Use option 'names no' to turn use of names off
Version identifier: 12.10.0.0 | 2019-11-26 | 843d4de2ae
CPXPARAM_Advance                                 0
CPXPARAM_Simplex_Display                         2
CPXPARAM_Threads                                 1
CPXPARAM_Parallel                                1
Tried aggregator 1 time.
LP Presolve eliminated 1 rows and 1 columns.
Reduced LP has 5 rows, 6 columns, and 12 nonzeros.
Presolve time = 0.00 sec. (0.00 ticks)

Iteration      Dual Objective            In Variable           Out Variable
     1               0.487500    x(seattle.new-york) demand(new-york) slack
     2               0.793500     x(seattle.chicago)  demand(chicago) slack
     3               1.024500    x(san-diego.topeka)   demand(topeka) slack
     4               1.024500  x(san-diego.new-york)  supply(seattle) slack
LP status(1): optimal
Cplex Time: 0.00sec (det. 0.01 ticks)

Optimal solution found.
Objective :           1.024500

--- Reading solution for model transport
--- Executing after solve: elapsed 0:00:00.152
--- transport02.gms(53) 4 Mb
*** Status: Normal completion
--- Job transport02.gms Stop 11/17/20 14:31:35 elapsed 0:00:00.152
